 &control
    calculation = 'scf'
    prefix = 'LAr_cell_N30_HSL5.5aB_4' 
    outdir = 'temp' 
    pseudo_dir = '/cluster/home/lmarin/Local_programs/q-e-qe-6.4.1_mpi_parallel/pseudo'
    verbosity = 'high'
 /
 &system
    ibrav =  0
    celldm(1) = 21.261399754253237
    nat = 30
    ntyp = 1
    ecutwfc = 120
    ecutrho = 960
    nbnd = 240
    lda_plus_u = .true.
    Hubbard_U(1) = 0.996
    lda_plus_u_kind = 1
    vdw_corr = 'DFT-D'
    noncolin = .true.
    lspinorb = .true. 
    nosym = .true.
/
 &electrons
    conv_thr = 1.0d-8
    mixing_beta=0.6
    electron_maxstep=200
 /
CELL_PARAMETERS {alat}
1.000000000   0.000000000   0.000000000
0.000000000   1.000000000   0.000000000
0.000000000   0.000000000   1.000000000
ATOMIC_SPECIES
Ar  39.948  Ar.rel-pbe-n-rrkjus_psl.1.0.0.UPF
ATOMIC_POSITIONS {alat}
Ar        0.105829104 0.395993114 0.667048744
Ar        0.160739482 0.412649321 0.099786674
Ar        0.005216368 0.262041299 0.958887893
Ar        0.236723429 0.110571137 0.71216449
Ar        0.276257479 0.696151479 0.687749014
Ar        0.585526096 0.16217516 0.17828594
Ar        0.29002507 0.195789768 0.410868454
Ar        0.153842355 0.509502411 0.380142462
Ar        0.25473062 0.0797296 0.132210284
Ar        0.373128345 0.393824429 0.77832714
Ar        0.00060347 0.579362491 0.94257832
Ar        0.460551213 0.438744638 0.203341355
Ar        0.881747055 0.82756131 0.184080949
Ar        0.284763344 0.737152057 0.188436094
Ar        0.13795052 0.851239078 0.989622773
Ar        0.771766314 0.971992137 0.922722414
Ar        0.075156441 0.827703519 0.487634549
Ar        0.597507189 0.17722263 0.821709716
Ar        0.733467703 0.414818005 0.069851719
Ar        0.629610829 0.200998166 0.488194496
Ar        0.996456239 0.276244404 0.418778819
Ar        0.609070543 0.718202733 0.211562802
Ar        0.946265416 0.081907173 0.680727454
Ar        0.636747933 0.683805976 0.822571857
Ar        0.442704007 0.944634716 0.386275217
Ar        0.58651267 0.501894239 0.53838532
Ar        0.425745606 0.948625451 0.95525268
Ar        0.862673298 0.543561422 0.354678197
Ar        0.708518944 0.821917398 0.510147982
Ar        0.854887365 0.429047775 0.726838662
K_POINTS {automatic}
2 1 1 0 0 0
