 &control
    calculation = 'scf'
    prefix = 'LAr_cell_N30_HSL5.5aB_2' 
    outdir = 'temp' 
    pseudo_dir = '/cluster/home/lmarin/Local_programs/q-e-qe-6.4.1_mpi_parallel/pseudo'
    verbosity = 'high'
 /
 &system
    ibrav =  0
    celldm(1) = 21.261399754253237
    nat = 30
    ntyp = 1
    ecutwfc = 120
    ecutrho = 960
    nbnd = 240
    lda_plus_u = .true.
    Hubbard_U(1) = 0.996
    lda_plus_u_kind = 1
    vdw_corr = 'DFT-D'
    noncolin = .true.
    lspinorb = .true. 
    nosym = .true.
/
 &electrons
    conv_thr = 1.0d-8
    mixing_beta=0.6
    electron_maxstep=200
 /
CELL_PARAMETERS {alat}
1.000000000   0.000000000   0.000000000
0.000000000   1.000000000   0.000000000
0.000000000   0.000000000   1.000000000
ATOMIC_SPECIES
Ar  39.948  Ar.rel-pbe-n-rrkjus_psl.1.0.0.UPF
ATOMIC_POSITIONS {alat}
Ar        0.105780915 0.395259003 0.675430299
Ar        0.160691293 0.411915211 0.10816823
Ar        0.005168179 0.261307189 0.967269449
Ar        0.23667524 0.109837026 0.720546045
Ar        0.27620929 0.695417368 0.696130569
Ar        0.585477907 0.16144105 0.186667495
Ar        0.289976881 0.195055658 0.419250009
Ar        0.153794165 0.508768301 0.388524018
Ar        0.254682431 0.07899549 0.140591839
Ar        0.373080156 0.393090319 0.786708696
Ar        0.000555281 0.57862838 0.950959875
Ar        0.460503024 0.438010528 0.21172291
Ar        0.881698866 0.8268272 0.192462504
Ar        0.284715154 0.736417947 0.196817649
Ar        0.137902331 0.850504968 0.998004328
Ar        0.771718124 0.971258026 0.93110397
Ar        0.075108251 0.826969409 0.496016105
Ar        0.597459 0.17648852 0.830091272
Ar        0.733419513 0.414083895 0.078233275
Ar        0.629562639 0.200264056 0.496576052
Ar        0.99640805 0.275510294 0.427160375
Ar        0.609022354 0.717468623 0.219944357
Ar        0.946217227 0.081173062 0.689109009
Ar        0.636699744 0.683071866 0.830953413
Ar        0.442655818 0.943900606 0.394656773
Ar        0.586464481 0.501160129 0.546766875
Ar        0.425697417 0.947891341 0.963634236
Ar        0.862625109 0.542827311 0.363059752
Ar        0.708470755 0.821183288 0.518529537
Ar        0.854839176 0.428313664 0.735220217
K_POINTS {automatic}
2 1 1 0 0 0
