 &control
    calculation = 'scf'
    prefix = 'LAr_cell_N30_HSL5.5aB_0' 
    outdir = 'temp' 
    pseudo_dir = '/cluster/home/lmarin/Local_programs/q-e-qe-6.4.1_mpi_parallel/pseudo'
    verbosity = 'high'
 /
 &system
    ibrav =  0
    celldm(1) = 21.261399754253237
    nat = 30
    ntyp = 1
    ecutwfc = 120
    ecutrho = 960
    nbnd = 240
    lda_plus_u = .true.
    Hubbard_U(1) = 0.996
    lda_plus_u_kind = 1
    vdw_corr = 'DFT-D'
    noncolin = .true.
    lspinorb = .true. 
    nosym = .true.
/
 &electrons
    conv_thr = 1.0d-8
    mixing_beta=0.6
    electron_maxstep=200
 /
CELL_PARAMETERS {alat}
1.000000000   0.000000000   0.000000000
0.000000000   1.000000000   0.000000000
0.000000000   0.000000000   1.000000000
ATOMIC_SPECIES
Ar  39.948  Ar.rel-pbe-n-rrkjus_psl.1.0.0.UPF
ATOMIC_POSITIONS {alat}
Ar        0.005639593 0.928921059 0.262828408
Ar        0.297327646 0.992675048 0.141764268
Ar        0.190253298 0.652849311 0.769207329
Ar        0.031379389 0.222249912 0.001057535
Ar        0.673452182 0.234213229 0.001199744
Ar        0.448531167 0.21213531 0.849137571
Ar        0.073570966 0.265348071 0.747396053
Ar        0.240088599 0.648405286 0.202078581
Ar        0.451899738 0.311121533 0.250216264
Ar        0.65494726 0.583326978 0.559778187
Ar        0.271054568 0.500125934 0.474364019
Ar        0.867771638 0.558618196 0.784716978
Ar        0.492153721 0.540948751 0.881996695
Ar        0.247821203 0.834858817 0.459520974
Ar        0.102057169 0.960802497 0.797071369
Ar        0.23994639 0.101381309 0.539877841
Ar        0.750929321 0.315494454 0.333097338
Ar        0.109007625 0.291656701 0.301038139
Ar        0.773664955 0.144212826 0.763927827
Ar        0.990906694 0.524523633 0.009998914
Ar        0.536789512 0.629687051 0.261024134
Ar        0.519111179 0.295682988 0.554569789
Ar        0.561107219 0.89900388 0.568755119
Ar        0.969522044 0.082298663 0.499419434
Ar        0.413601127 0.94701713 0.888876046
Ar        0.640450849 0.958624925 0.263352803
Ar        0.83807666 0.799031084 0.080045643
Ar        0.925312879 0.560298038 0.328004485
Ar        0.747898496 0.818504803 0.824730983
Ar        0.886587641 0.794329305 0.548757004
K_POINTS {automatic}
2 1 1 0 0 0
