 &control
    calculation = 'scf'
    prefix = 'LAr_cell_N30_HSL5.5aB_5' 
    outdir = 'temp' 
    pseudo_dir = '/cluster/home/lmarin/Local_programs/q-e-qe-6.4.1_mpi_parallel/pseudo'
    verbosity = 'high'
 /
 &system
    ibrav =  0
    celldm(1) = 21.261399754253237
    nat = 30
    ntyp = 1
    ecutwfc = 120
    ecutrho = 960
    nbnd = 240
    lda_plus_u = .true.
    Hubbard_U(1) = 0.996
    lda_plus_u_kind = 1
    vdw_corr = 'DFT-D'
    noncolin = .true.
    lspinorb = .true. 
    nosym = .true.
/
 &electrons
    conv_thr = 1.0d-8
    mixing_beta=0.6
    electron_maxstep=200
 /
CELL_PARAMETERS {alat}
1.000000000   0.000000000   0.000000000
0.000000000   1.000000000   0.000000000
0.000000000   0.000000000   1.000000000
ATOMIC_SPECIES
Ar  39.948  Ar.rel-pbe-n-rrkjus_psl.1.0.0.UPF
ATOMIC_POSITIONS {alat}
Ar        0.13493266 0.400296827 0.638428837
Ar        0.000527555 0.281374707 0.277413988
Ar        0.189843038 0.416953035 0.071166768
Ar        0.034319924 0.266345013 0.930267987
Ar        0.265826984 0.114874851 0.683544583
Ar        0.305361035 0.700455193 0.659129108
Ar        0.614629652 0.166478874 0.149666033
Ar        0.319128625 0.200093482 0.382248548
Ar        0.18294591 0.513806125 0.351522556
Ar        0.283834175 0.084033314 0.103590378
Ar        0.402231901 0.398128143 0.749707234
Ar        0.029707026 0.583666204 0.913958414
Ar        0.489654769 0.443048352 0.174721448
Ar        0.91085061 0.831865024 0.155461042
Ar        0.313866899 0.741455771 0.159816187
Ar        0.167054075 0.855542792 0.961002867
Ar        0.800869869 0.976295851 0.894102508
Ar        0.104259996 0.832007233 0.459014643
Ar        0.626610744 0.181526344 0.79308981
Ar        0.762571258 0.419121719 0.041231813
Ar        0.658714384 0.20530188 0.45957459
Ar        0.638174099 0.722506447 0.182942896
Ar        0.975368972 0.086210887 0.652107548
Ar        0.665851489 0.68810969 0.793951951
Ar        0.471807563 0.94893843 0.357655311
Ar        0.615616225 0.506197953 0.509765413
Ar        0.454849162 0.952929165 0.926632774
Ar        0.891776853 0.547865136 0.32605829
Ar        0.737622499 0.826221112 0.481528076
Ar        0.883990921 0.433351488 0.698218755
K_POINTS {automatic}
2 1 1 0 0 0
