 &control
    calculation = 'scf'
    prefix = 'LAr_cell_N30_HSL5.5aB_9' 
    outdir = 'temp' 
    pseudo_dir = '/cluster/home/lmarin/Local_programs/q-e-qe-6.4.1_mpi_parallel/pseudo'
    verbosity = 'high'
 /
 &system
    ibrav =  0
    celldm(1) = 21.261399754253237
    nat = 30
    ntyp = 1
    ecutwfc = 120
    ecutrho = 960
    nbnd = 240
    lda_plus_u = .true.
    Hubbard_U(1) = 0.996
    lda_plus_u_kind = 1
    vdw_corr = 'DFT-D'
    noncolin = .true.
    lspinorb = .true. 
    nosym = .true.
/
 &electrons
    conv_thr = 1.0d-8
    mixing_beta=0.6
    electron_maxstep=200
 /
CELL_PARAMETERS {alat}
1.000000000   0.000000000   0.000000000
0.000000000   1.000000000   0.000000000
0.000000000   0.000000000   1.000000000
ATOMIC_SPECIES
Ar  39.948  Ar.rel-pbe-n-rrkjus_psl.1.0.0.UPF
ATOMIC_POSITIONS {alat}
Ar        0.107294028 0.391686879 0.646352057
Ar        0.162204406 0.408343086 0.079089988
Ar        0.006681292 0.257735065 0.938191207
Ar        0.238188353 0.106264902 0.691467803
Ar        0.277722403 0.691845244 0.667052328
Ar        0.58699102 0.157868925 0.157589253
Ar        0.291489994 0.191483534 0.390171768
Ar        0.155307279 0.505196176 0.359445776
Ar        0.256195544 0.075423366 0.111513598
Ar        0.374593269 0.389518194 0.757630454
Ar        0.002068394 0.575056256 0.921881634
Ar        0.462016137 0.434438403 0.182644669
Ar        0.883211979 0.823255076 0.163384262
Ar        0.286228268 0.732845823 0.167739407
Ar        0.139415444 0.846932843 0.968926087
Ar        0.773231238 0.967685902 0.902025728
Ar        0.076621364 0.823397285 0.466937863
Ar        0.598972113 0.172916395 0.80101303
Ar        0.734932627 0.410511771 0.049155033
Ar        0.631075752 0.196691931 0.46749781
Ar        0.997921163 0.27193817 0.398082133
Ar        0.610535467 0.713896498 0.190866116
Ar        0.94773034 0.077600938 0.660030768
Ar        0.638212857 0.679499741 0.801875171
Ar        0.444168931 0.940328482 0.365578531
Ar        0.587977594 0.497588005 0.517688633
Ar        0.42721053 0.944319216 0.934555994
Ar        0.864138222 0.539255187 0.33398151
Ar        0.709983868 0.817611163 0.489451296
Ar        0.856352289 0.42474154 0.706141975
K_POINTS {automatic}
2 1 1 0 0 0
