 &control
    calculation = 'scf'
    prefix = 'LAr_cell_N30_HSL5.5aB_7' 
    outdir = 'temp' 
    pseudo_dir = '/cluster/home/lmarin/Local_programs/q-e-qe-6.4.1_mpi_parallel/pseudo'
    verbosity = 'high'
 /
 &system
    ibrav =  0
    celldm(1) = 21.261399754253237
    nat = 30
    ntyp = 1
    ecutwfc = 120
    ecutrho = 960
    nbnd = 240
    lda_plus_u = .true.
    Hubbard_U(1) = 0.996
    lda_plus_u_kind = 1
    vdw_corr = 'DFT-D'
    noncolin = .true.
    lspinorb = .true. 
    nosym = .true.
/
 &electrons
    conv_thr = 1.0d-8
    mixing_beta=0.6
    electron_maxstep=200
 /
CELL_PARAMETERS {alat}
1.000000000   0.000000000   0.000000000
0.000000000   1.000000000   0.000000000
0.000000000   0.000000000   1.000000000
ATOMIC_SPECIES
Ar  39.948  Ar.rel-pbe-n-rrkjus_psl.1.0.0.UPF
ATOMIC_POSITIONS {alat}
Ar        0.005045897 0.913697621 0.261974438
Ar        0.296733949 0.97745161 0.140910298
Ar        0.189659601 0.637625874 0.768353359
Ar        0.030785692 0.207026475 0.000203565
Ar        0.672858485 0.218989791 0.000345774
Ar        0.44793747 0.196911873 0.848283601
Ar        0.072977269 0.250124633 0.746542083
Ar        0.239494902 0.633181849 0.201224611
Ar        0.451306042 0.295898095 0.249362294
Ar        0.654353563 0.56810354 0.558924217
Ar        0.270460871 0.484902496 0.473510049
Ar        0.867177941 0.543394759 0.783863008
Ar        0.491560024 0.525725314 0.881142725
Ar        0.247227506 0.819635379 0.458667004
Ar        0.101463472 0.94557906 0.796217399
Ar        0.239352693 0.086157871 0.539023871
Ar        0.750335624 0.300271016 0.332243368
Ar        0.108413928 0.276433264 0.300184169
Ar        0.773071258 0.128989388 0.763073857
Ar        0.990312997 0.509300196 0.009144944
Ar        0.536195815 0.614463613 0.260170164
Ar        0.518517482 0.280459551 0.553715819
Ar        0.560513522 0.883780442 0.567901149
Ar        0.968928347 0.067075226 0.498565464
Ar        0.413007431 0.931793693 0.888022076
Ar        0.639857152 0.943401487 0.262498833
Ar        0.837482963 0.783807646 0.079191673
Ar        0.924719182 0.545074601 0.327150515
Ar        0.747304799 0.803281366 0.823877013
Ar        0.885993944 0.779105867 0.547903034
K_POINTS {automatic}
2 1 1 0 0 0
