 &control
    calculation = 'scf'
    prefix = 'LAr_cell_N30_HSL5.5aB_1' 
    outdir = 'temp' 
    pseudo_dir = '/cluster/home/lmarin/Local_programs/q-e-qe-6.4.1_mpi_parallel/pseudo'
    verbosity = 'high'
 /
 &system
    ibrav =  0
    celldm(1) = 21.261399754253237
    nat = 30
    ntyp = 1
    ecutwfc = 120
    ecutrho = 960
    nbnd = 240
    lda_plus_u = .true.
    Hubbard_U(1) = 0.996
    lda_plus_u_kind = 1
    vdw_corr = 'DFT-D'
    noncolin = .true.
    lspinorb = .true. 
    nosym = .true.
/
 &electrons
    conv_thr = 1.0d-8
    mixing_beta=0.6
    electron_maxstep=200
 /
CELL_PARAMETERS {alat}
1.000000000   0.000000000   0.000000000
0.000000000   1.000000000   0.000000000
0.000000000   0.000000000   1.000000000
ATOMIC_SPECIES
Ar  39.948  Ar.rel-pbe-n-rrkjus_psl.1.0.0.UPF
ATOMIC_POSITIONS {alat}
Ar        0.107965189 0.392983204 0.664496626
Ar        0.162875567 0.409639411 0.097234557
Ar        0.007352454 0.25903139 0.956335776
Ar        0.238859514 0.107561227 0.709612372
Ar        0.278393564 0.693141569 0.685196897
Ar        0.587662182 0.159165251 0.175733822
Ar        0.292161155 0.192779859 0.408316337
Ar        0.15597844 0.506492502 0.377590345
Ar        0.256866705 0.076719691 0.129658167
Ar        0.37526443 0.39081452 0.775775023
Ar        0.002739555 0.576352581 0.940026203
Ar        0.462687299 0.435734729 0.200789238
Ar        0.88388314 0.824551401 0.181528831
Ar        0.286899429 0.734142148 0.185883976
Ar        0.140086605 0.848229169 0.987070656
Ar        0.773902399 0.968982227 0.920170297
Ar        0.077292526 0.82469361 0.485082432
Ar        0.599643274 0.174212721 0.819157599
Ar        0.735603788 0.411808096 0.067299602
Ar        0.631746914 0.197988257 0.485642379
Ar        0.998592324 0.273234495 0.416226702
Ar        0.611206628 0.715192823 0.209010685
Ar        0.948401501 0.078897263 0.678175337
Ar        0.638884019 0.680796067 0.82001974
Ar        0.444840093 0.941624807 0.3837231
Ar        0.588648755 0.49888433 0.535833202
Ar        0.427881692 0.945615542 0.952700563
Ar        0.864809383 0.540551512 0.352126079
Ar        0.710655029 0.818907489 0.507595865
Ar        0.857023451 0.426037865 0.724286544
K_POINTS {automatic}
2 1 1 0 0 0
