 &control
    calculation = 'scf'
    prefix = 'LAr_cell_N30_HSL5.5aB_8' 
    outdir = 'temp' 
    pseudo_dir = '/cluster/home/lmarin/Local_programs/q-e-qe-6.4.1_mpi_parallel/pseudo'
    verbosity = 'high'
 /
 &system
    ibrav =  0
    celldm(1) = 21.261399754253237
    nat = 30
    ntyp = 1
    ecutwfc = 120
    ecutrho = 960
    nbnd = 240
    lda_plus_u = .true.
    Hubbard_U(1) = 0.996
    lda_plus_u_kind = 1
    vdw_corr = 'DFT-D'
    noncolin = .true.
    lspinorb = .true. 
    nosym = .true.
/
 &electrons
    conv_thr = 1.0d-8
    mixing_beta=0.6
    electron_maxstep=200
 /
CELL_PARAMETERS {alat}
1.000000000   0.000000000   0.000000000
0.000000000   1.000000000   0.000000000
0.000000000   0.000000000   1.000000000
ATOMIC_SPECIES
Ar  39.948  Ar.rel-pbe-n-rrkjus_psl.1.0.0.UPF
ATOMIC_POSITIONS {alat}
Ar        0.107729493 0.392027632 0.674599449
Ar        0.162639871 0.40868384 0.10733738
Ar        0.007116757 0.258075818 0.966438598
Ar        0.238623818 0.106605655 0.719715195
Ar        0.278157868 0.692185997 0.695299719
Ar        0.587426485 0.158209679 0.185836645
Ar        0.291925459 0.191824287 0.418419159
Ar        0.155742744 0.50553693 0.387693167
Ar        0.256631009 0.075764119 0.139760989
Ar        0.375028734 0.389858948 0.785877845
Ar        0.002503859 0.575397009 0.950129025
Ar        0.462451602 0.434779157 0.21089206
Ar        0.883647444 0.823595829 0.191631654
Ar        0.286663733 0.733186576 0.195986799
Ar        0.139850909 0.847273597 0.997173478
Ar        0.773666703 0.968026655 0.930273119
Ar        0.077056829 0.823738038 0.495185254
Ar        0.599407578 0.173257149 0.829260422
Ar        0.735368092 0.410852524 0.077402424
Ar        0.631511217 0.197032685 0.495745202
Ar        0.998356628 0.272278923 0.426329524
Ar        0.610970932 0.714237252 0.219113507
Ar        0.948165805 0.077941691 0.688278159
Ar        0.638648322 0.679840495 0.830122562
Ar        0.444604396 0.940669235 0.393825922
Ar        0.588413059 0.497928758 0.545936025
Ar        0.427645995 0.94465997 0.962803385
Ar        0.864573687 0.53959594 0.362228902
Ar        0.710419333 0.817951917 0.517698687
Ar        0.856787754 0.425082293 0.734389367
K_POINTS {automatic}
2 1 1 0 0 0
