 &control
    calculation = 'scf'
    prefix = 'LAr_cell_N30_HSL5.5aB_6' 
    outdir = 'temp' 
    pseudo_dir = '/cluster/home/lmarin/Local_programs/q-e-qe-6.4.1_mpi_parallel/pseudo'
    verbosity = 'high'
 /
 &system
    ibrav =  0
    celldm(1) = 21.261399754253237
    nat = 30
    ntyp = 1
    ecutwfc = 120
    ecutrho = 960
    nbnd = 240
    lda_plus_u = .true.
    Hubbard_U(1) = 0.996
    lda_plus_u_kind = 1
    vdw_corr = 'DFT-D'
    noncolin = .true.
    lspinorb = .true. 
    nosym = .true.
/
 &electrons
    conv_thr = 1.0d-8
    mixing_beta=0.6
    electron_maxstep=200
 /
CELL_PARAMETERS {alat}
1.000000000   0.000000000   0.000000000
0.000000000   1.000000000   0.000000000
0.000000000   0.000000000   1.000000000
ATOMIC_SPECIES
Ar  39.948  Ar.rel-pbe-n-rrkjus_psl.1.0.0.UPF
ATOMIC_POSITIONS {alat}
Ar        4.5016e-05 0.924284424 0.262625236
Ar        0.291733068 0.988038412 0.141561096
Ar        0.18465872 0.648212676 0.769004157
Ar        0.025784811 0.217613277 0.000854363
Ar        0.667857604 0.229576593 0.000996571
Ar        0.442936589 0.207498675 0.848934398
Ar        0.067976388 0.260711435 0.74719288
Ar        0.234494021 0.643768651 0.201875409
Ar        0.446305161 0.306484897 0.250013092
Ar        0.649352682 0.578690343 0.559575015
Ar        0.26545999 0.495489299 0.474160846
Ar        0.86217706 0.553981561 0.784513806
Ar        0.486559143 0.536312116 0.881793522
Ar        0.242226625 0.830222182 0.459317801
Ar        0.096462591 0.956165862 0.796868196
Ar        0.234351812 0.096744673 0.539674669
Ar        0.745334743 0.310857818 0.332894166
Ar        0.103413047 0.287020066 0.300834967
Ar        0.768070377 0.13957619 0.763724655
Ar        0.985312116 0.519886998 0.009795742
Ar        0.531194934 0.625050416 0.260820962
Ar        0.513516601 0.291046353 0.554366617
Ar        0.555512641 0.894367244 0.568551946
Ar        0.963927466 0.077662028 0.499216262
Ar        0.408006549 0.942380495 0.888672874
Ar        0.634856271 0.95398829 0.263149631
Ar        0.832482082 0.794394449 0.07984247
Ar        0.919718301 0.555661403 0.327801313
Ar        0.742303918 0.813868168 0.824527811
Ar        0.880993063 0.78969267 0.548553832
K_POINTS {automatic}
2 1 1 0 0 0
