 &control
    calculation = 'scf'
    prefix = 'LAr_cell_N30_HSL5.5aB_3' 
    outdir = 'temp' 
    pseudo_dir = '/cluster/home/lmarin/Local_programs/q-e-qe-6.4.1_mpi_parallel/pseudo'
    verbosity = 'high'
 /
 &system
    ibrav =  0
    celldm(1) = 21.261399754253237
    nat = 30
    ntyp = 1
    ecutwfc = 120
    ecutrho = 960
    nbnd = 240
    lda_plus_u = .true.
    Hubbard_U(1) = 0.996
    lda_plus_u_kind = 1
    vdw_corr = 'DFT-D'
    noncolin = .true.
    lspinorb = .true. 
    nosym = .true.
/
 &electrons
    conv_thr = 1.0d-8
    mixing_beta=0.6
    electron_maxstep=200
 /
CELL_PARAMETERS {alat}
1.000000000   0.000000000   0.000000000
0.000000000   1.000000000   0.000000000
0.000000000   0.000000000   1.000000000
ATOMIC_SPECIES
Ar  39.948  Ar.rel-pbe-n-rrkjus_psl.1.0.0.UPF
ATOMIC_POSITIONS {alat}
Ar        0.106942 0.399400274 0.644684207
Ar        0.161852378 0.416056481 0.077422138
Ar        0.006329264 0.26544846 0.936523356
Ar        0.237836324 0.113978297 0.689799953
Ar        0.277370375 0.699558639 0.665384477
Ar        0.586638992 0.16558232 0.155921403
Ar        0.291137965 0.199196929 0.388503917
Ar        0.15495525 0.512909571 0.357777925
Ar        0.255843515 0.083136761 0.109845747
Ar        0.374241241 0.397231589 0.755962603
Ar        0.001716366 0.582769651 0.920213783
Ar        0.461664109 0.442151798 0.180976818
Ar        0.88285995 0.830968471 0.161716412
Ar        0.285876239 0.740559218 0.166071557
Ar        0.139063415 0.854646238 0.967258236
Ar        0.772879209 0.975399297 0.900357877
Ar        0.076269336 0.83111068 0.465270012
Ar        0.598620084 0.18062979 0.79934518
Ar        0.734580598 0.418225166 0.047487182
Ar        0.630723724 0.204405326 0.46582996
Ar        0.997569135 0.279651565 0.396414283
Ar        0.610183439 0.721609893 0.189198265
Ar        0.947378312 0.085314333 0.658362917
Ar        0.637860829 0.687213136 0.800207321
Ar        0.443816903 0.948041877 0.363910681
Ar        0.587625565 0.5053014 0.516020783
Ar        0.426858502 0.952032611 0.932888144
Ar        0.863786193 0.546968582 0.33231366
Ar        0.709631839 0.825324559 0.487783445
Ar        0.856000261 0.432454935 0.704474125
K_POINTS {automatic}
2 1 1 0 0 0
